(declare-const a Real)
(declare-const b Real)
(declare-const c Real)
(assert (= (* a b c) 1))
(assert (> a 0))
(assert (> b 0))
(assert (> c 0))
(assert (not (<= (+ (* -278040 (pow a 4)) (* 17343 (pow (+ a b) 4)) (* -1350552 (pow a (/ 55296 56273)) (pow b (/ 169796 56273))) (* 266592 b (pow a 3)) (* 1084512 a (pow b 3))) 0)))
(check-sat)
(get-model)
(exit)